---
AWSTemplateFormatVersion: 2010-09-09
Description: Kyivmural API v0.4.0 - Database

Parameters:
  Branch:
    Description: branch name
    Type: String

Resources:
  MuralsTable:
    Type: AWS::DynamoDB::Table
    Properties:
      TableName: !Sub "Kyivmural-Murals-${Branch}"
      AttributeDefinitions:
        - AttributeName: id
          AttributeType: S
        - AttributeName: artist_name_en
          AttributeType: S
      KeySchema:
        - AttributeName: id
          KeyType: HASH
        - AttributeName: artist_name_en
          KeyType: RANGE
      GlobalSecondaryIndexes:
        - IndexName: artist_name_en-index
          KeySchema:
            - AttributeName: artist_name_en
              KeyType: HASH
            - AttributeName: id
              KeyType: RANGE
          Projection:
            ProjectionType: KEYS_ONLY
        - IndexName: artist_name_en-index-v2
          KeySchema:
            - AttributeName: artist_name_en
              KeyType: HASH
            - AttributeName: id
              KeyType: RANGE
          Projection:
            ProjectionType: INCLUDE
            NonKeyAttributes:
              - thumbnail
              - geoposition
              - mural_status
        - IndexName: artist_name_en-index-v3
          KeySchema:
            - AttributeName: artist_name_en
              KeyType: HASH
            - AttributeName: id
              KeyType: RANGE
          Projection:
            ProjectionType: INCLUDE
            NonKeyAttributes:
              - thumbnail
              - geo_position
              - mural_status
      BillingMode: PAY_PER_REQUEST

  ArtistsTableV2:
    Type: AWS::DynamoDB::Table
    Properties:
      TableName: !Sub "Kyivmural-Artists-${Branch}-V2"
      AttributeDefinitions:
        - AttributeName: artist_name_en
          AttributeType: S
      KeySchema:
        - AttributeName: artist_name_en
          KeyType: HASH
      BillingMode: PAY_PER_REQUEST

Outputs:
  MuralsTableName:
    Value: !Ref MuralsTable
  ArtistsTableName:
    Value: !Ref ArtistsTableV2
  ArtistsTableArn:
    Value: !GetAtt ArtistsTableV2.Arn
